NAME: instance_2853
TYPE: TSP
DIMENSION: 20
EDGE_WEIGHT_TYPE: EUC_2D
NODE_COORD_SECTION
0 9.71 34.51
1 34.79 40.70
2 72.99 48.41
3 65.57 66.53
4 56.66 78.08
5 35.31 71.97
6 38.39 68.31
7 74.33 16.83
8 90.19 24.12
9 34.54 69.18
10 87.19 69.72
11 7.19 18.74
12 5.52 38.32
13 74.52 16.20
14 80.87 62.20
15 80.17 0.57
16 97.71 31.85
17 76.58 83.99
18 11.36 84.19
19 77.99 40.90
EOF
